NAME : d198.opt.tour
COMMENT : Optimum tour for d198.tsp (15834.0)
TYPE : TOUR
DIMENSION : 198
TOUR_SECTION
171
128
170
127
129
137
172
166
165
164
163
151
150
144
145
143
142
147
146
149
148
153
152
162
161
160
159
158
157
156
155
154
139
138
134
140
141
135
136
133
132
131
130
126
125
169
124
123
120
119
118
117
116
121
122
115
104
103
102
93
101
94
95
96
90
89
97
98
88
83
82
75
62
53
46
36
37
32
31
38
45
54
61
66
74
70
67
60
55
44
56
59
68
72
73
84
87
99
100
86
85
71
69
58
57
42
43
41
13
12
11
10
9
8
5
4
3
6
7
2
1
40
14
15
16
17
18
19
20
21
24
25
26
27
22
23
28
29
30
33
34
35
39
47
51
52
65
81
76
77
78
64
50
48
49
63
79
80
91
92
105
114
113
112
106
107
111
110
109
108
167
168
182
183
181
177
175
176
173
174
178
180
184
185
179
194
195
198
197
196
187
186
193
192
191
188
189
190
-1
EOF